p cnf 156 526
c p weight -61 1 0
c p weight 61 -1 0
c p weight 65 6.12323399573676603586882014729198302312846062338790031898128063403419218957424163818359375E-17 0
c p weight -65 1 0
c p weight 66 1 0
c p weight -66 1 0
c p weight -63 1 0
c p weight 63 -1 0
c p weight -67 1 0
c p weight 67 -1 0
c p weight -69 1 0
c p weight 69 -1 0
c p weight -72 1 0
c p weight 72 -1 0
c p weight -75 1 0
c p weight 75 -1 0
c p weight -78 1 0
c p weight 78 -1 0
c p weight -81 1 0
c p weight 81 -1 0
c p weight -84 1 0
c p weight 84 -1 0
c p weight -87 1 0
c p weight 87 -1 0
c p weight -90 1 0
c p weight 90 -1 0
c p weight -93 1 0
c p weight 93 -1 0
c p weight -96 1 0
c p weight 96 -1 0
c p weight -99 1 0
c p weight 99 -1 0
c p weight -102 1 0
c p weight 102 -1 0
c p weight -105 1 0
c p weight 105 -1 0
c p weight -108 1 0
c p weight 108 -1 0
c p weight -111 1 0
c p weight 111 -1 0
c p weight -114 1 0
c p weight 114 -1 0
c p weight -117 1 0
c p weight 117 -1 0
c p weight -120 1 0
c p weight 120 -1 0
c p weight -123 1 0
c p weight 123 -1 0
c p weight -126 1 0
c p weight 126 -1 0
c p weight -129 1 0
c p weight 129 -1 0
c p weight -132 1 0
c p weight 132 -1 0
c p weight -135 1 0
c p weight 135 -1 0
c p weight -138 1 0
c p weight 138 -1 0
c p weight -141 1 0
c p weight 141 -1 0
c p weight -144 1 0
c p weight 144 -1 0
c p weight -147 1 0
c p weight 147 -1 0
c p weight -150 1 0
c p weight 150 -1 0
c p weight -153 1 0
c p weight 153 -1 0
c p weight 156 0.5 0
c p weight -156 1 0
156 0
-59 0
-57 0
-55 0
-53 0
-51 0
-49 0
-47 0
-45 0
-43 0
-41 0
-39 0
-37 0
-35 0
-33 0
-31 0
-29 0
-27 0
-25 0
-23 0
-21 0
-19 0
-17 0
-15 0
-13 0
-11 0
-9 0
-7 0
-5 0
-3 0
-1 0
-61 59 0
-61 60 0
61 -59 -60 0
62 59 -60 0
62 -59 60 0
-62 59 60 0
-62 -59 -60 0
-63 64 0
-63 62 0
-63 -59 0
63 -64 59 -62 0
64 -59 62 0
-64 59 62 0
-65 62 0
64 -65 -59 0
-64 -65 59 0
64 65 59 -62 0
-64 65 -59 -62 0
-66 62 0
64 -66 59 0
-64 -66 -59 0
64 66 -59 -62 0
-64 66 59 -62 0
-67 64 0
-67 62 0
67 -64 -62 0
68 64 -62 0
68 -64 62 0
-68 64 62 0
-68 -64 -62 0
-69 64 0
-69 58 0
-69 57 -68 0
-69 -57 68 0
69 -64 57 68 -58 0
69 -64 -57 -68 -58 0
71 64 -57 0
71 -64 57 0
-71 64 57 0
-71 -64 -57 0
70 68 -58 0
70 -68 58 0
-70 68 58 0
-70 -68 -58 0
-72 71 0
-72 56 0
-72 55 -58 0
-72 -55 58 0
72 -71 55 58 -56 0
72 -71 -55 -58 -56 0
74 71 -55 0
74 -71 55 0
-74 71 55 0
-74 -71 -55 0
73 58 -56 0
73 -58 56 0
-73 58 56 0
-73 -58 -56 0
-75 74 0
-75 54 0
-75 53 -56 0
-75 -53 56 0
75 -74 53 56 -54 0
75 -74 -53 -56 -54 0
77 74 -53 0
77 -74 53 0
-77 74 53 0
-77 -74 -53 0
76 56 -54 0
76 -56 54 0
-76 56 54 0
-76 -56 -54 0
-78 77 0
-78 52 0
-78 51 -54 0
-78 -51 54 0
78 -77 51 54 -52 0
78 -77 -51 -54 -52 0
80 77 -51 0
80 -77 51 0
-80 77 51 0
-80 -77 -51 0
79 54 -52 0
79 -54 52 0
-79 54 52 0
-79 -54 -52 0
-81 80 0
-81 50 0
-81 49 -52 0
-81 -49 52 0
81 -80 49 52 -50 0
81 -80 -49 -52 -50 0
83 80 -49 0
83 -80 49 0
-83 80 49 0
-83 -80 -49 0
82 52 -50 0
82 -52 50 0
-82 52 50 0
-82 -52 -50 0
-84 83 0
-84 48 0
-84 47 -50 0
-84 -47 50 0
84 -83 47 50 -48 0
84 -83 -47 -50 -48 0
86 83 -47 0
86 -83 47 0
-86 83 47 0
-86 -83 -47 0
85 50 -48 0
85 -50 48 0
-85 50 48 0
-85 -50 -48 0
-87 86 0
-87 46 0
-87 45 -48 0
-87 -45 48 0
87 -86 45 48 -46 0
87 -86 -45 -48 -46 0
89 86 -45 0
89 -86 45 0
-89 86 45 0
-89 -86 -45 0
88 48 -46 0
88 -48 46 0
-88 48 46 0
-88 -48 -46 0
-90 89 0
-90 44 0
-90 43 -46 0
-90 -43 46 0
90 -89 43 46 -44 0
90 -89 -43 -46 -44 0
92 89 -43 0
92 -89 43 0
-92 89 43 0
-92 -89 -43 0
91 46 -44 0
91 -46 44 0
-91 46 44 0
-91 -46 -44 0
-93 92 0
-93 42 0
-93 41 -44 0
-93 -41 44 0
93 -92 41 44 -42 0
93 -92 -41 -44 -42 0
95 92 -41 0
95 -92 41 0
-95 92 41 0
-95 -92 -41 0
94 44 -42 0
94 -44 42 0
-94 44 42 0
-94 -44 -42 0
-96 95 0
-96 40 0
-96 39 -42 0
-96 -39 42 0
96 -95 39 42 -40 0
96 -95 -39 -42 -40 0
98 95 -39 0
98 -95 39 0
-98 95 39 0
-98 -95 -39 0
97 42 -40 0
97 -42 40 0
-97 42 40 0
-97 -42 -40 0
-99 98 0
-99 38 0
-99 37 -40 0
-99 -37 40 0
99 -98 37 40 -38 0
99 -98 -37 -40 -38 0
101 98 -37 0
101 -98 37 0
-101 98 37 0
-101 -98 -37 0
100 40 -38 0
100 -40 38 0
-100 40 38 0
-100 -40 -38 0
-102 101 0
-102 36 0
-102 35 -38 0
-102 -35 38 0
102 -101 35 38 -36 0
102 -101 -35 -38 -36 0
104 101 -35 0
104 -101 35 0
-104 101 35 0
-104 -101 -35 0
103 38 -36 0
103 -38 36 0
-103 38 36 0
-103 -38 -36 0
-105 104 0
-105 34 0
-105 33 -36 0
-105 -33 36 0
105 -104 33 36 -34 0
105 -104 -33 -36 -34 0
107 104 -33 0
107 -104 33 0
-107 104 33 0
-107 -104 -33 0
106 36 -34 0
106 -36 34 0
-106 36 34 0
-106 -36 -34 0
-108 107 0
-108 32 0
-108 31 -34 0
-108 -31 34 0
108 -107 31 34 -32 0
108 -107 -31 -34 -32 0
110 107 -31 0
110 -107 31 0
-110 107 31 0
-110 -107 -31 0
109 34 -32 0
109 -34 32 0
-109 34 32 0
-109 -34 -32 0
-111 110 0
-111 30 0
-111 29 -32 0
-111 -29 32 0
111 -110 29 32 -30 0
111 -110 -29 -32 -30 0
113 110 -29 0
113 -110 29 0
-113 110 29 0
-113 -110 -29 0
112 32 -30 0
112 -32 30 0
-112 32 30 0
-112 -32 -30 0
-114 113 0
-114 28 0
-114 27 -30 0
-114 -27 30 0
114 -113 27 30 -28 0
114 -113 -27 -30 -28 0
116 113 -27 0
116 -113 27 0
-116 113 27 0
-116 -113 -27 0
115 30 -28 0
115 -30 28 0
-115 30 28 0
-115 -30 -28 0
-117 116 0
-117 26 0
-117 25 -28 0
-117 -25 28 0
117 -116 25 28 -26 0
117 -116 -25 -28 -26 0
119 116 -25 0
119 -116 25 0
-119 116 25 0
-119 -116 -25 0
118 28 -26 0
118 -28 26 0
-118 28 26 0
-118 -28 -26 0
-120 119 0
-120 24 0
-120 23 -26 0
-120 -23 26 0
120 -119 23 26 -24 0
120 -119 -23 -26 -24 0
122 119 -23 0
122 -119 23 0
-122 119 23 0
-122 -119 -23 0
121 26 -24 0
121 -26 24 0
-121 26 24 0
-121 -26 -24 0
-123 122 0
-123 22 0
-123 21 -24 0
-123 -21 24 0
123 -122 21 24 -22 0
123 -122 -21 -24 -22 0
125 122 -21 0
125 -122 21 0
-125 122 21 0
-125 -122 -21 0
124 24 -22 0
124 -24 22 0
-124 24 22 0
-124 -24 -22 0
-126 125 0
-126 20 0
-126 19 -22 0
-126 -19 22 0
126 -125 19 22 -20 0
126 -125 -19 -22 -20 0
128 125 -19 0
128 -125 19 0
-128 125 19 0
-128 -125 -19 0
127 22 -20 0
127 -22 20 0
-127 22 20 0
-127 -22 -20 0
-129 128 0
-129 18 0
-129 17 -20 0
-129 -17 20 0
129 -128 17 20 -18 0
129 -128 -17 -20 -18 0
131 128 -17 0
131 -128 17 0
-131 128 17 0
-131 -128 -17 0
130 20 -18 0
130 -20 18 0
-130 20 18 0
-130 -20 -18 0
-132 131 0
-132 16 0
-132 15 -18 0
-132 -15 18 0
132 -131 15 18 -16 0
132 -131 -15 -18 -16 0
134 131 -15 0
134 -131 15 0
-134 131 15 0
-134 -131 -15 0
133 18 -16 0
133 -18 16 0
-133 18 16 0
-133 -18 -16 0
-135 134 0
-135 14 0
-135 13 -16 0
-135 -13 16 0
135 -134 13 16 -14 0
135 -134 -13 -16 -14 0
137 134 -13 0
137 -134 13 0
-137 134 13 0
-137 -134 -13 0
136 16 -14 0
136 -16 14 0
-136 16 14 0
-136 -16 -14 0
-138 137 0
-138 12 0
-138 11 -14 0
-138 -11 14 0
138 -137 11 14 -12 0
138 -137 -11 -14 -12 0
140 137 -11 0
140 -137 11 0
-140 137 11 0
-140 -137 -11 0
139 14 -12 0
139 -14 12 0
-139 14 12 0
-139 -14 -12 0
-141 140 0
-141 10 0
-141 9 -12 0
-141 -9 12 0
141 -140 9 12 -10 0
141 -140 -9 -12 -10 0
143 140 -9 0
143 -140 9 0
-143 140 9 0
-143 -140 -9 0
142 12 -10 0
142 -12 10 0
-142 12 10 0
-142 -12 -10 0
-144 143 0
-144 8 0
-144 7 -10 0
-144 -7 10 0
144 -143 7 10 -8 0
144 -143 -7 -10 -8 0
146 143 -7 0
146 -143 7 0
-146 143 7 0
-146 -143 -7 0
145 10 -8 0
145 -10 8 0
-145 10 8 0
-145 -10 -8 0
-147 146 0
-147 6 0
-147 5 -8 0
-147 -5 8 0
147 -146 5 8 -6 0
147 -146 -5 -8 -6 0
149 146 -5 0
149 -146 5 0
-149 146 5 0
-149 -146 -5 0
148 8 -6 0
148 -8 6 0
-148 8 6 0
-148 -8 -6 0
-150 149 0
-150 4 0
-150 3 -6 0
-150 -3 6 0
150 -149 3 6 -4 0
150 -149 -3 -6 -4 0
152 149 -3 0
152 -149 3 0
-152 149 3 0
-152 -149 -3 0
151 6 -4 0
151 -6 4 0
-151 6 4 0
-151 -6 -4 0
-153 152 0
-153 2 0
-153 1 -4 0
-153 -1 4 0
153 -152 1 4 -2 0
153 -152 -1 -4 -2 0
155 152 -1 0
155 -152 1 0
-155 152 1 0
-155 -152 -1 0
154 4 -2 0
154 -4 2 0
-154 4 2 0
-154 -4 -2 0
-155 0
-152 0
-154 0
-149 0
-151 0
-146 0
-148 0
-143 0
-145 0
-140 0
-142 0
-137 0
-139 0
-134 0
-136 0
-131 0
-133 0
-128 0
-130 0
-125 0
-127 0
-122 0
-124 0
-119 0
-121 0
-116 0
-118 0
-113 0
-115 0
-110 0
-112 0
-107 0
-109 0
-104 0
-106 0
-101 0
-103 0
-98 0
-100 0
-95 0
-97 0
-92 0
-94 0
-89 0
-91 0
-86 0
-88 0
-83 0
-85 0
-80 0
-82 0
-77 0
-79 0
-74 0
-76 0
-71 0
-73 0
-64 0
-70 0
